tsplp.lp
\ Model TSP0
\ LP format - for model browsing. Use MPS format to capture full model detail.
Minimize
  845.6441331907885 x0_1 + 437.0125856311234 x0_2 + 102.5524256173397 x0_3
   + 495.7741421252222 x0_4 + 49.09175083453431 x0_5
   + 721.1227357392082 x0_6 + 726.829416025521 x0_7
   + 885.9779906972859 x0_8 + 575.4389628796438 x0_9
   + 485.1082353454742 x1_2 + 834.0533556074215 x1_3
   + 470.0234036726257 x1_4 + 806.9919454368799 x1_5
   + 544.1323368446319 x1_6 + 307.0260575260674 x1_7
   + 211.8135972972463 x1_8 + 285.8810941632902 x1_9
   + 473.8280278750931 x2_3 + 418.7075351602834 x2_4
   + 389.1657744458009 x2_5 + 318.8636072053379 x2_6
   + 292.5149568825499 x2_7 + 464.6428736137034 x2_8
   + 313.0015974400131 x2_9 + 440.1056691295853 x3_4
   + 132.3215779833357 x3_5 + 777.0489045098771 x3_6
   + 752.8983995201478 x3_7 + 898.6934961375875 x3_8
   + 553.0831763848906 x3_9 + 477.1687332590014 x4_5
   + 703.2282701939677 x4_6 + 547.6358279002571 x4_7
   + 613.4924612413749 x4_8 + 205.0804720103794 x4_9
   + 672.0863039818621 x5_6 + 679.830125840272 x5_7
   + 841.0879858849489 x5_8 + 541.6456406175536 x5_9
   + 237.1349826575573 x6_7 + 393.7829351305107 x6_8
   + 537.207594883021 x6_9 + 186.9384925583813 x7_8
   + 352.3308104608508 x7_9 + 408.9021887933592 x8_9
Subject To
 dc_0: x0_1 + x0_2 + x0_3 + x0_4 + x0_5 + x0_6 + x0_7 + x0_8 + x0_9 = 2
 dc_1: x0_1 + x1_2 + x1_3 + x1_4 + x1_5 + x1_6 + x1_7 + x1_8 + x1_9 = 2
 dc_2: x0_2 + x1_2 + x2_3 + x2_4 + x2_5 + x2_6 + x2_7 + x2_8 + x2_9 = 2
 dc_3: x0_3 + x1_3 + x2_3 + x3_4 + x3_5 + x3_6 + x3_7 + x3_8 + x3_9 = 2
 dc_4: x0_4 + x1_4 + x2_4 + x3_4 + x4_5 + x4_6 + x4_7 + x4_8 + x4_9 = 2
 dc_5: x0_5 + x1_5 + x2_5 + x3_5 + x4_5 + x5_6 + x5_7 + x5_8 + x5_9 = 2
 dc_6: x0_6 + x1_6 + x2_6 + x3_6 + x4_6 + x5_6 + x6_7 + x6_8 + x6_9 = 2
 dc_7: x0_7 + x1_7 + x2_7 + x3_7 + x4_7 + x5_7 + x6_7 + x7_8 + x7_9 = 2
 dc_8: x0_8 + x1_8 + x2_8 + x3_8 + x4_8 + x5_8 + x6_8 + x7_8 + x8_9 = 2
 dc_9: x0_9 + x1_9 + x2_9 + x3_9 + x4_9 + x5_9 + x6_9 + x7_9 + x8_9 = 2
 sec_0: x1_2 + x1_4 + x1_6 + x1_7 + x1_8 + x1_9 + x2_4 + x2_6 + x2_7 + x2_8
   + x2_9 + x4_6 + x4_7 + x4_8 + x4_9 + x6_7 + x6_8 + x6_9 + x7_8 + x7_9
   + x8_9 <= 6
Bounds
 x0_1 <= 1
 x0_2 <= 1
 x0_3 <= 1
 x0_4 <= 1
 x0_5 <= 1
 x0_6 <= 1
 x0_7 <= 1
 x0_8 <= 1
 x0_9 <= 1
 x1_2 <= 1
 x1_3 <= 1
 x1_4 <= 1
 x1_5 <= 1
 x1_6 <= 1
 x1_7 <= 1
 x1_8 <= 1
 x1_9 <= 1
 x2_3 <= 1
 x2_4 <= 1
 x2_5 <= 1
 x2_6 <= 1
 x2_7 <= 1
 x2_8 <= 1
 x2_9 <= 1
 x3_4 <= 1
 x3_5 <= 1
 x3_6 <= 1
 x3_7 <= 1
 x3_8 <= 1
 x3_9 <= 1
 x4_5 <= 1
 x4_6 <= 1
 x4_7 <= 1
 x4_8 <= 1
 x4_9 <= 1
 x5_6 <= 1
 x5_7 <= 1
 x5_8 <= 1
 x5_9 <= 1
 x6_7 <= 1
 x6_8 <= 1
 x6_9 <= 1
 x7_8 <= 1
 x7_9 <= 1
 x8_9 <= 1
End
